166
0 8 141 41 135 165 104 60 51 98 
136 63 16 67 43 68 30 75 26 33 
148 13 45 27 14 92 152 50 118 79 
139 3 17 22 61 119 54 147 10 87 
69 155 91 134 25 133 153 65 84 128 
20 73 42 117 35 4 164 149 161 29 
94 66 121 28 46 34 32 108 126 157 
110 89 112 156 102 116 62 100 124 56 
1 154 113 52 131 159 115 76 12 120 
40 37 140 142 18 145 44 151 49 23 
57 107 58 97 64 71 95 105 82 86 
150 38 111 144 2 106 55 162 109 88 
80 125 48 36 93 138 163 5 11 143 
101 19 137 9 24 15 39 127 83 158 
47 59 72 77 146 123 6 103 81 78 
74 129 122 114 90 160 130 70 85 53 
21 99 7 132 96 31 
